db/data/1035519347233968894347327171131932681.z3.out
sat
-------------------
495.316234952
